************************************************************************
file with basedata            : mm26_.bas
initial value random generator: 7051
************************************************************************
projects                      :  1
jobs (incl. supersource/sink ):  12
horizon                       :  82
RESOURCES
  - renewable                 :  2   R
  - nonrenewable              :  2   N
  - doubly constrained        :  0   D
************************************************************************
PROJECT INFORMATION:
pronr.  #jobs rel.date duedate tardcost  MPM-Time
    1     10      0       14        7       14
************************************************************************
PRECEDENCE RELATIONS:
jobnr.    #modes  #successors   successors
   0        1          3           1   2   3
   1        3          1           5
   2        3          1          10
   3        3          3           4   6   7
   4        3          2           9  10
   5        3          2           7   8
   6        3          2           8   9
   7        3          1           9
   8        3          1          11
   9        3          1          11
  10        3          1          11
  11        1          0        
************************************************************************
REQUESTS/DURATIONS:
jobnr. mode duration  R 1  R 2  R 3  R 4  E(W 1)  E(W 2)  E(W 3)
------------------------------------------------------------------------
  0      1     0       0    0    0    0     0       0       0
  1      1     6       0    5    7    0    30      42       0
  2      1     2       9    0    0    5    18       0      10
  3      1     3       0    7    8    0    21      24       0
  4      1     4       0    2    7    0     8      28       0
  5      1     4       0    7    2    0    28       8       0
  6      1     1       0    4    0    9     4       0       9
  7      1     3       0    6    0    8    18       0      24
  8      1     4       9    0    0    8    36       0      32
  9      1     1       0    6    0    6     6       0       6
 10      1     6       0    2    7    0    12      42       0
 11      1     0       0    0    0    0     0       0       0
************************************************************************
RESOURCEAVAILABILITIES:
  R 1  R 2  R 3
   43   26   39
************************************************************************
RESOURCE LIMITS:
jobnr.  l(R 1)  u(R 1)  l(R 2)  u(R 2)  l(R 3)  u(R 3)
------------------------------------------------------------------------
  0        0       0       0       0       0       0
  1        3       5       4       7       0       0
  2        5       9       0       0       3       5
  3        4       7       4       8       0       0
  4        1       2       4       7       0       0
  5        4       7       1       2       0       0
  6        2       4       0       0       5       9
  7        3       6       0       0       4       8
  8        5       9       0       0       4       8
  9        3       6       0       0       3       6
 10        1       2       4       7       0       0
 11        0       0       0       0       0       0
************************************************************************
SCENARIOS:
------------------------------------------------------------------------
RESOURCE k = 1
s = 1: (0, 26, 18, 15, 7, 34, 4, 18, 32, 6, 12, 0)
s = 2: (0, 20, 16, 21, 8, 20, 7, 20, 32, 6, 11, 0)
s = 3: (0, 36, 21, 31, 7, 21, 4, 13, 35, 6, 14, 0)
s = 4: (0, 28, 31, 26, 7, 52, 4, 18, 31, 5, 18, 0)
s = 5: (0, 20, 15, 16, 8, 34, 5, 15, 29, 5, 14, 0)
s = 6: (0, 21, 16, 24, 9, 46, 3, 14, 26, 4, 13, 0)
s = 7: (0, 51, 21, 25, 7, 26, 3, 15, 37, 8, 11, 0)
s = 8: (0, 38, 20, 26, 11, 17, 3, 14, 37, 7, 10, 0)
s = 9: (0, 34, 12, 15, 8, 23, 4, 20, 39, 5, 10, 0)
s = 10: (0, 28, 18, 30, 6, 26, 4, 17, 37, 8, 11, 0)
s = 11: (0, 34, 10, 25, 10, 26, 3, 16, 44, 5, 11, 0)
s = 12: (0, 32, 16, 20, 5, 22, 4, 19, 43, 7, 10, 0)
s = 13: (0, 25, 12, 26, 5, 30, 5, 18, 29, 6, 14, 0)
s = 14: (0, 38, 23, 24, 7, 34, 5, 16, 25, 6, 12, 0)
s = 15: (0, 27, 18, 32, 14, 40, 4, 15, 28, 7, 10, 0)
s = 16: (0, 16, 19, 38, 10, 23, 3, 16, 54, 6, 7, 0)
s = 17: (0, 17, 30, 18, 8, 23, 4, 27, 33, 6, 13, 0)
s = 18: (0, 20, 18, 28, 9, 24, 4, 18, 53, 5, 13, 0)
s = 19: (0, 29, 18, 36, 12, 21, 3, 12, 33, 6, 8, 0)
s = 20: (0, 29, 14, 21, 10, 18, 4, 13, 25, 5, 11, 0)
s = 21: (0, 31, 24, 22, 9, 26, 6, 26, 39, 6, 16, 0)
s = 22: (0, 49, 14, 21, 7, 35, 3, 24, 69, 5, 17, 0)
s = 23: (0, 24, 16, 25, 11, 31, 6, 25, 34, 6, 10, 0)
s = 24: (0, 29, 15, 20, 9, 23, 4, 13, 49, 4, 17, 0)
s = 25: (0, 30, 16, 18, 11, 25, 4, 12, 43, 5, 12, 0)
s = 26: (0, 19, 22, 15, 14, 31, 3, 28, 27, 5, 19, 0)
s = 27: (0, 24, 22, 19, 10, 19, 5, 15, 37, 8, 18, 0)
s = 28: (0, 30, 22, 13, 7, 34, 4, 20, 35, 5, 13, 0)
s = 29: (0, 24, 16, 33, 13, 17, 5, 17, 32, 5, 11, 0)
s = 30: (0, 38, 20, 33, 7, 28, 6, 21, 23, 4, 14, 0)
s = 31: (0, 42, 22, 13, 14, 27, 6, 24, 36, 5, 11, 0)
s = 32: (0, 28, 12, 24, 8, 22, 5, 14, 40, 4, 16, 0)
s = 33: (0, 19, 15, 20, 5, 30, 3, 13, 26, 6, 18, 0)
s = 34: (0, 39, 12, 17, 5, 31, 4, 15, 21, 9, 15, 0)
s = 35: (0, 29, 15, 22, 11, 36, 3, 14, 34, 5, 10, 0)
s = 36: (0, 43, 15, 29, 10, 31, 3, 15, 41, 4, 12, 0)
s = 37: (0, 37, 16, 29, 5, 34, 4, 20, 58, 8, 10, 0)
s = 38: (0, 25, 14, 23, 10, 23, 5, 22, 37, 7, 9, 0)
s = 39: (0, 22, 16, 36, 10, 34, 5, 16, 50, 5, 16, 0)
s = 40: (0, 23, 12, 29, 6, 18, 5, 14, 23, 7, 12, 0)
s = 41: (0, 18, 23, 17, 7, 23, 4, 25, 38, 6, 12, 0)
s = 42: (0, 28, 13, 22, 13, 26, 5, 18, 34, 5, 12, 0)
s = 43: (0, 24, 18, 32, 7, 31, 3, 11, 26, 6, 8, 0)
s = 44: (0, 40, 22, 29, 10, 31, 6, 18, 40, 5, 11, 0)
s = 45: (0, 36, 14, 14, 6, 33, 6, 14, 47, 6, 13, 0)
s = 46: (0, 48, 20, 17, 8, 19, 6, 17, 36, 10, 11, 0)
s = 47: (0, 30, 12, 23, 9, 42, 3, 26, 36, 7, 19, 0)
s = 48: (0, 40, 23, 15, 10, 21, 5, 11, 61, 6, 11, 0)
s = 49: (0, 33, 12, 32, 6, 35, 4, 17, 26, 8, 14, 0)
s = 50: (0, 43, 13, 18, 8, 31, 5, 15, 41, 5, 13, 0)
s = 51: (0, 43, 19, 22, 6, 42, 4, 24, 34, 10, 15, 0)
s = 52: (0, 32, 10, 25, 6, 32, 4, 19, 35, 6, 7, 0)
s = 53: (0, 16, 12, 18, 6, 35, 4, 18, 39, 6, 14, 0)
s = 54: (0, 48, 16, 17, 13, 26, 6, 12, 41, 4, 16, 0)
s = 55: (0, 26, 28, 16, 8, 53, 4, 15, 30, 4, 8, 0)
s = 56: (0, 37, 14, 27, 6, 32, 5, 14, 44, 6, 12, 0)
s = 57: (0, 30, 22, 20, 10, 33, 4, 17, 54, 5, 16, 0)
s = 58: (0, 51, 13, 29, 5, 21, 3, 15, 37, 6, 23, 0)
s = 59: (0, 30, 17, 13, 9, 30, 3, 17, 43, 7, 15, 0)
s = 60: (0, 28, 16, 16, 7, 35, 6, 25, 30, 7, 11, 0)
s = 61: (0, 27, 13, 31, 8, 33, 5, 19, 47, 6, 11, 0)
s = 62: (0, 43, 18, 13, 9, 18, 4, 16, 25, 8, 11, 0)
s = 63: (0, 29, 16, 19, 8, 19, 4, 24, 32, 6, 17, 0)
s = 64: (0, 33, 20, 24, 11, 30, 8, 15, 44, 6, 14, 0)
s = 65: (0, 31, 17, 23, 10, 26, 5, 12, 34, 7, 11, 0)
s = 66: (0, 20, 24, 17, 11, 28, 4, 25, 27, 8, 18, 0)
s = 67: (0, 29, 13, 24, 8, 26, 4, 29, 62, 6, 16, 0)
s = 68: (0, 27, 21, 23, 9, 23, 4, 17, 34, 10, 18, 0)
s = 69: (0, 21, 23, 25, 10, 36, 3, 22, 31, 4, 15, 0)
s = 70: (0, 30, 12, 35, 8, 30, 4, 22, 28, 6, 7, 0)
s = 71: (0, 18, 23, 16, 14, 21, 3, 11, 34, 8, 14, 0)
s = 72: (0, 34, 15, 19, 6, 24, 3, 19, 35, 9, 8, 0)
s = 73: (0, 32, 26, 15, 9, 23, 4, 16, 37, 9, 11, 0)
s = 74: (0, 33, 15, 20, 11, 25, 5, 16, 42, 6, 12, 0)
s = 75: (0, 37, 27, 21, 6, 26, 4, 20, 29, 6, 11, 0)
s = 76: (0, 44, 17, 34, 10, 36, 5, 16, 35, 6, 7, 0)
s = 77: (0, 26, 14, 35, 6, 32, 5, 23, 49, 9, 10, 0)
s = 78: (0, 23, 11, 15, 8, 31, 3, 17, 29, 6, 8, 0)
s = 79: (0, 18, 18, 19, 9, 29, 7, 22, 32, 5, 8, 0)
s = 80: (0, 32, 26, 22, 9, 20, 5, 19, 45, 10, 14, 0)
s = 81: (0, 32, 14, 18, 9, 40, 5, 22, 44, 5, 12, 0)
s = 82: (0, 17, 13, 33, 8, 24, 6, 12, 29, 7, 9, 0)
s = 83: (0, 32, 12, 23, 7, 30, 5, 15, 30, 5, 9, 0)
s = 84: (0, 40, 10, 21, 8, 39, 7, 28, 45, 7, 15, 0)
s = 85: (0, 28, 22, 25, 7, 50, 4, 21, 35, 4, 7, 0)
s = 86: (0, 27, 19, 23, 10, 34, 3, 26, 32, 5, 12, 0)
s = 87: (0, 30, 16, 28, 13, 29, 4, 12, 39, 6, 13, 0)
s = 88: (0, 20, 17, 17, 7, 30, 5, 21, 40, 4, 11, 0)
s = 89: (0, 38, 11, 16, 11, 27, 4, 21, 47, 6, 12, 0)
s = 90: (0, 22, 17, 13, 6, 26, 6, 25, 43, 6, 13, 0)
s = 91: (0, 19, 13, 14, 7, 36, 3, 17, 24, 6, 10, 0)
s = 92: (0, 35, 22, 26, 10, 49, 4, 12, 50, 8, 10, 0)
s = 93: (0, 32, 16, 29, 8, 34, 5, 20, 50, 8, 8, 0)
s = 94: (0, 37, 24, 22, 7, 22, 4, 19, 39, 4, 7, 0)
s = 95: (0, 17, 15, 17, 7, 28, 4, 25, 30, 9, 10, 0)
s = 96: (0, 20, 18, 17, 5, 38, 3, 15, 36, 7, 18, 0)
s = 97: (0, 35, 20, 21, 7, 20, 4, 21, 27, 7, 12, 0)
s = 98: (0, 22, 27, 23, 6, 35, 3, 20, 28, 6, 11, 0)
s = 99: (0, 32, 19, 18, 5, 37, 3, 21, 34, 9, 11, 0)
s = 100: (0, 29, 14, 23, 5, 30, 5, 10, 31, 5, 9, 0)
s = 101: (0, 24, 19, 26, 12, 28, 4, 12, 21, 8, 15, 0)
s = 102: (0, 34, 23, 31, 7, 19, 6, 19, 37, 9, 11, 0)
s = 103: (0, 31, 25, 13, 8, 24, 3, 17, 26, 9, 16, 0)
s = 104: (0, 35, 22, 20, 11, 30, 4, 23, 32, 8, 10, 0)
s = 105: (0, 29, 11, 14, 6, 22, 4, 22, 36, 7, 10, 0)
s = 106: (0, 32, 15, 18, 6, 28, 4, 17, 26, 5, 8, 0)
s = 107: (0, 33, 17, 26, 9, 33, 5, 17, 35, 6, 15, 0)
s = 108: (0, 23, 19, 22, 11, 36, 6, 16, 54, 7, 8, 0)
s = 109: (0, 40, 20, 20, 11, 31, 4, 23, 24, 6, 15, 0)
s = 110: (0, 22, 15, 17, 5, 22, 7, 21, 32, 6, 14, 0)
s = 111: (0, 39, 23, 21, 10, 31, 5, 16, 35, 4, 14, 0)
s = 112: (0, 38, 28, 29, 11, 32, 3, 25, 43, 4, 16, 0)
s = 113: (0, 23, 12, 28, 8, 25, 3, 13, 30, 6, 8, 0)
s = 114: (0, 26, 25, 26, 12, 31, 4, 22, 27, 7, 11, 0)
s = 115: (0, 22, 27, 23, 9, 28, 5, 13, 24, 6, 10, 0)
s = 116: (0, 50, 10, 36, 8, 29, 3, 15, 24, 7, 14, 0)
s = 117: (0, 29, 30, 27, 12, 30, 4, 27, 27, 6, 9, 0)
s = 118: (0, 24, 17, 18, 13, 45, 5, 26, 30, 6, 11, 0)
s = 119: (0, 29, 16, 23, 6, 45, 6, 18, 41, 8, 15, 0)
s = 120: (0, 24, 25, 26, 9, 25, 6, 18, 25, 8, 12, 0)
s = 121: (0, 39, 27, 22, 12, 28, 3, 15, 21, 7, 7, 0)
s = 122: (0, 33, 18, 16, 10, 21, 4, 25, 29, 5, 11, 0)
s = 123: (0, 44, 12, 19, 10, 29, 5, 17, 41, 6, 8, 0)
s = 124: (0, 36, 24, 21, 6, 26, 5, 15, 45, 4, 12, 0)
s = 125: (0, 36, 23, 26, 7, 33, 4, 15, 23, 4, 14, 0)
s = 126: (0, 20, 16, 17, 12, 20, 4, 16, 53, 4, 10, 0)
s = 127: (0, 43, 18, 21, 10, 38, 5, 30, 46, 6, 11, 0)
s = 128: (0, 26, 14, 17, 7, 23, 4, 14, 36, 5, 9, 0)
s = 129: (0, 51, 13, 27, 14, 30, 5, 19, 38, 8, 16, 0)
s = 130: (0, 24, 17, 27, 6, 31, 4, 20, 56, 6, 13, 0)
s = 131: (0, 45, 15, 16, 6, 42, 4, 25, 51, 9, 10, 0)
s = 132: (0, 32, 14, 33, 5, 20, 4, 22, 23, 5, 12, 0)
s = 133: (0, 38, 25, 17, 7, 25, 7, 15, 43, 7, 12, 0)
s = 134: (0, 26, 17, 20, 6, 25, 4, 15, 28, 9, 15, 0)
s = 135: (0, 31, 15, 29, 7, 40, 4, 30, 42, 7, 14, 0)
s = 136: (0, 21, 10, 15, 8, 29, 3, 16, 57, 6, 8, 0)
s = 137: (0, 28, 23, 33, 9, 19, 3, 19, 34, 5, 21, 0)
s = 138: (0, 30, 31, 18, 9, 37, 6, 21, 40, 8, 8, 0)
s = 139: (0, 30, 24, 30, 5, 21, 6, 18, 31, 7, 15, 0)
s = 140: (0, 24, 17, 19, 9, 17, 4, 13, 59, 4, 9, 0)
s = 141: (0, 39, 25, 24, 8, 41, 4, 20, 38, 6, 12, 0)
s = 142: (0, 26, 19, 20, 6, 33, 5, 16, 43, 8, 19, 0)
s = 143: (0, 24, 23, 18, 10, 40, 3, 20, 39, 8, 15, 0)
s = 144: (0, 34, 19, 26, 10, 34, 4, 27, 34, 6, 10, 0)
s = 145: (0, 25, 11, 21, 9, 36, 5, 13, 34, 7, 16, 0)
s = 146: (0, 29, 17, 22, 8, 24, 4, 19, 31, 7, 12, 0)
s = 147: (0, 23, 18, 19, 9, 26, 5, 24, 23, 6, 13, 0)
s = 148: (0, 43, 14, 21, 7, 27, 4, 28, 52, 5, 12, 0)
s = 149: (0, 27, 21, 24, 6, 39, 4, 19, 26, 8, 10, 0)
s = 150: (0, 20, 22, 23, 14, 28, 4, 11, 26, 5, 9, 0)
s = 151: (0, 32, 19, 23, 12, 25, 5, 25, 32, 5, 16, 0)
s = 152: (0, 33, 30, 17, 8, 18, 4, 16, 47, 9, 15, 0)
s = 153: (0, 28, 26, 19, 8, 24, 4, 13, 46, 6, 11, 0)
s = 154: (0, 30, 17, 26, 7, 23, 4, 20, 28, 6, 15, 0)
s = 155: (0, 41, 15, 14, 7, 19, 6, 15, 26, 6, 9, 0)
s = 156: (0, 19, 13, 28, 11, 16, 4, 17, 27, 6, 7, 0)
s = 157: (0, 38, 31, 16, 10, 25, 5, 29, 30, 5, 17, 0)
s = 158: (0, 23, 22, 34, 8, 19, 3, 12, 62, 5, 18, 0)
s = 159: (0, 44, 18, 15, 8, 21, 5, 19, 27, 8, 12, 0)
s = 160: (0, 33, 28, 17, 10, 29, 6, 16, 27, 8, 14, 0)
s = 161: (0, 19, 14, 26, 10, 15, 3, 14, 27, 5, 17, 0)
s = 162: (0, 23, 25, 32, 7, 41, 6, 13, 38, 10, 11, 0)
s = 163: (0, 38, 17, 17, 6, 29, 5, 11, 43, 6, 13, 0)
s = 164: (0, 22, 16, 20, 8, 35, 4, 15, 29, 9, 18, 0)
s = 165: (0, 22, 21, 14, 9, 19, 4, 19, 51, 7, 14, 0)
s = 166: (0, 24, 21, 16, 12, 27, 4, 18, 32, 9, 14, 0)
s = 167: (0, 21, 11, 22, 5, 32, 3, 11, 30, 9, 9, 0)
s = 168: (0, 23, 23, 20, 6, 44, 5, 23, 45, 7, 11, 0)
s = 169: (0, 38, 15, 18, 6, 38, 4, 11, 35, 6, 11, 0)
s = 170: (0, 20, 20, 24, 12, 40, 4, 29, 37, 6, 13, 0)
s = 171: (0, 47, 23, 19, 9, 44, 5, 24, 22, 5, 8, 0)
s = 172: (0, 28, 16, 18, 9, 18, 4, 27, 49, 6, 7, 0)
s = 173: (0, 32, 14, 27, 9, 36, 3, 19, 25, 6, 8, 0)
s = 174: (0, 40, 15, 18, 7, 23, 3, 19, 35, 4, 15, 0)
s = 175: (0, 26, 15, 26, 9, 34, 5, 16, 44, 7, 14, 0)
s = 176: (0, 28, 28, 17, 6, 32, 4, 15, 44, 8, 21, 0)
s = 177: (0, 22, 18, 22, 5, 31, 6, 12, 36, 7, 7, 0)
s = 178: (0, 24, 21, 22, 9, 26, 6, 13, 35, 5, 14, 0)
s = 179: (0, 36, 18, 21, 12, 30, 6, 20, 35, 5, 13, 0)
s = 180: (0, 27, 11, 15, 13, 31, 3, 21, 47, 8, 13, 0)
s = 181: (0, 22, 21, 13, 9, 21, 5, 12, 36, 8, 18, 0)
s = 182: (0, 19, 18, 12, 8, 20, 4, 26, 48, 5, 13, 0)
s = 183: (0, 17, 24, 33, 13, 26, 6, 14, 34, 5, 16, 0)
s = 184: (0, 29, 17, 17, 10, 30, 4, 19, 29, 7, 10, 0)
s = 185: (0, 32, 16, 13, 7, 21, 4, 27, 27, 9, 14, 0)
s = 186: (0, 32, 16, 30, 7, 29, 3, 24, 43, 4, 21, 0)
s = 187: (0, 33, 24, 34, 7, 26, 4, 25, 25, 4, 10, 0)
s = 188: (0, 44, 21, 21, 5, 38, 5, 13, 58, 6, 17, 0)
s = 189: (0, 22, 21, 22, 6, 40, 4, 25, 36, 10, 9, 0)
s = 190: (0, 21, 20, 16, 7, 39, 6, 14, 23, 4, 14, 0)
s = 191: (0, 30, 16, 25, 10, 24, 3, 15, 36, 5, 12, 0)
s = 192: (0, 40, 17, 24, 7, 47, 5, 13, 55, 8, 11, 0)
s = 193: (0, 24, 23, 17, 7, 18, 4, 20, 33, 7, 15, 0)
s = 194: (0, 32, 25, 15, 10, 41, 5, 16, 29, 8, 9, 0)
s = 195: (0, 44, 33, 17, 9, 18, 3, 27, 45, 4, 16, 0)
s = 196: (0, 29, 16, 16, 10, 34, 5, 17, 21, 5, 9, 0)
s = 197: (0, 27, 16, 17, 8, 24, 3, 29, 19, 8, 11, 0)
s = 198: (0, 21, 21, 37, 8, 40, 4, 15, 22, 7, 14, 0)
s = 199: (0, 46, 19, 19, 7, 19, 6, 11, 27, 6, 13, 0)
s = 200: (0, 33, 27, 17, 7, 32, 4, 19, 53, 8, 13, 0)
------------------------------------------------------------------------
RESOURCE k = 2
s = 1: (0, 36, 0, 17, 23, 10, 0, 0, 0, 0, 40, 0)
s = 2: (0, 28, 0, 24, 27, 6, 0, 0, 0, 0, 38, 0)
s = 3: (0, 51, 0, 36, 24, 6, 0, 0, 0, 0, 47, 0)
s = 4: (0, 39, 0, 30, 22, 15, 0, 0, 0, 0, 62, 0)
s = 5: (0, 28, 0, 19, 25, 10, 0, 0, 0, 0, 48, 0)
s = 6: (0, 30, 0, 28, 29, 14, 0, 0, 0, 0, 43, 0)
s = 7: (0, 71, 0, 28, 25, 8, 0, 0, 0, 0, 37, 0)
s = 8: (0, 53, 0, 30, 38, 5, 0, 0, 0, 0, 35, 0)
s = 9: (0, 47, 0, 17, 28, 7, 0, 0, 0, 0, 34, 0)
s = 10: (0, 39, 0, 34, 21, 8, 0, 0, 0, 0, 39, 0)
s = 11: (0, 47, 0, 28, 34, 8, 0, 0, 0, 0, 36, 0)
s = 12: (0, 44, 0, 22, 17, 7, 0, 0, 0, 0, 33, 0)
s = 13: (0, 34, 0, 30, 18, 9, 0, 0, 0, 0, 49, 0)
s = 14: (0, 53, 0, 27, 24, 10, 0, 0, 0, 0, 41, 0)
s = 15: (0, 37, 0, 36, 49, 12, 0, 0, 0, 0, 34, 0)
s = 16: (0, 23, 0, 43, 35, 7, 0, 0, 0, 0, 23, 0)
s = 17: (0, 23, 0, 21, 27, 7, 0, 0, 0, 0, 46, 0)
s = 18: (0, 27, 0, 31, 30, 7, 0, 0, 0, 0, 45, 0)
s = 19: (0, 40, 0, 41, 42, 6, 0, 0, 0, 0, 28, 0)
s = 20: (0, 40, 0, 24, 34, 5, 0, 0, 0, 0, 39, 0)
s = 21: (0, 44, 0, 25, 31, 8, 0, 0, 0, 0, 54, 0)
s = 22: (0, 68, 0, 24, 22, 10, 0, 0, 0, 0, 57, 0)
s = 23: (0, 33, 0, 28, 36, 9, 0, 0, 0, 0, 33, 0)
s = 24: (0, 40, 0, 22, 31, 7, 0, 0, 0, 0, 57, 0)
s = 25: (0, 42, 0, 21, 39, 8, 0, 0, 0, 0, 42, 0)
s = 26: (0, 27, 0, 17, 49, 9, 0, 0, 0, 0, 67, 0)
s = 27: (0, 33, 0, 22, 34, 6, 0, 0, 0, 0, 61, 0)
s = 28: (0, 42, 0, 14, 23, 10, 0, 0, 0, 0, 43, 0)
s = 29: (0, 33, 0, 38, 43, 5, 0, 0, 0, 0, 37, 0)
s = 30: (0, 52, 0, 38, 23, 8, 0, 0, 0, 0, 49, 0)
s = 31: (0, 59, 0, 15, 46, 8, 0, 0, 0, 0, 36, 0)
s = 32: (0, 40, 0, 28, 28, 7, 0, 0, 0, 0, 56, 0)
s = 33: (0, 26, 0, 22, 17, 9, 0, 0, 0, 0, 61, 0)
s = 34: (0, 54, 0, 19, 17, 9, 0, 0, 0, 0, 51, 0)
s = 35: (0, 40, 0, 25, 37, 11, 0, 0, 0, 0, 35, 0)
s = 36: (0, 60, 0, 34, 34, 9, 0, 0, 0, 0, 42, 0)
s = 37: (0, 51, 0, 33, 17, 10, 0, 0, 0, 0, 34, 0)
s = 38: (0, 35, 0, 27, 35, 7, 0, 0, 0, 0, 30, 0)
s = 39: (0, 30, 0, 41, 35, 10, 0, 0, 0, 0, 53, 0)
s = 40: (0, 32, 0, 33, 20, 5, 0, 0, 0, 0, 40, 0)
s = 41: (0, 25, 0, 19, 22, 7, 0, 0, 0, 0, 41, 0)
s = 42: (0, 39, 0, 25, 46, 8, 0, 0, 0, 0, 41, 0)
s = 43: (0, 33, 0, 36, 23, 9, 0, 0, 0, 0, 26, 0)
s = 44: (0, 55, 0, 33, 33, 9, 0, 0, 0, 0, 38, 0)
s = 45: (0, 50, 0, 16, 21, 10, 0, 0, 0, 0, 43, 0)
s = 46: (0, 67, 0, 19, 28, 6, 0, 0, 0, 0, 36, 0)
s = 47: (0, 42, 0, 26, 30, 12, 0, 0, 0, 0, 65, 0)
s = 48: (0, 55, 0, 17, 32, 6, 0, 0, 0, 0, 39, 0)
s = 49: (0, 46, 0, 37, 19, 10, 0, 0, 0, 0, 47, 0)
s = 50: (0, 60, 0, 20, 26, 9, 0, 0, 0, 0, 45, 0)
s = 51: (0, 60, 0, 25, 21, 12, 0, 0, 0, 0, 52, 0)
s = 52: (0, 44, 0, 28, 21, 9, 0, 0, 0, 0, 23, 0)
s = 53: (0, 23, 0, 20, 19, 10, 0, 0, 0, 0, 48, 0)
s = 54: (0, 66, 0, 20, 45, 8, 0, 0, 0, 0, 55, 0)
s = 55: (0, 36, 0, 18, 27, 16, 0, 0, 0, 0, 25, 0)
s = 56: (0, 51, 0, 31, 19, 9, 0, 0, 0, 0, 41, 0)
s = 57: (0, 42, 0, 23, 33, 10, 0, 0, 0, 0, 56, 0)
s = 58: (0, 72, 0, 33, 17, 6, 0, 0, 0, 0, 81, 0)
s = 59: (0, 42, 0, 15, 32, 9, 0, 0, 0, 0, 52, 0)
s = 60: (0, 38, 0, 18, 22, 10, 0, 0, 0, 0, 38, 0)
s = 61: (0, 37, 0, 35, 28, 10, 0, 0, 0, 0, 37, 0)
s = 62: (0, 60, 0, 15, 31, 5, 0, 0, 0, 0, 37, 0)
s = 63: (0, 40, 0, 22, 28, 6, 0, 0, 0, 0, 59, 0)
s = 64: (0, 47, 0, 28, 37, 9, 0, 0, 0, 0, 48, 0)
s = 65: (0, 43, 0, 26, 34, 8, 0, 0, 0, 0, 39, 0)
s = 66: (0, 28, 0, 19, 39, 8, 0, 0, 0, 0, 60, 0)
s = 67: (0, 40, 0, 27, 26, 8, 0, 0, 0, 0, 55, 0)
s = 68: (0, 38, 0, 27, 31, 7, 0, 0, 0, 0, 63, 0)
s = 69: (0, 30, 0, 28, 35, 11, 0, 0, 0, 0, 51, 0)
s = 70: (0, 42, 0, 40, 27, 9, 0, 0, 0, 0, 22, 0)
s = 71: (0, 25, 0, 18, 48, 6, 0, 0, 0, 0, 48, 0)
s = 72: (0, 48, 0, 22, 18, 7, 0, 0, 0, 0, 25, 0)
s = 73: (0, 44, 0, 17, 31, 7, 0, 0, 0, 0, 38, 0)
s = 74: (0, 45, 0, 22, 36, 8, 0, 0, 0, 0, 41, 0)
s = 75: (0, 51, 0, 24, 20, 8, 0, 0, 0, 0, 37, 0)
s = 76: (0, 62, 0, 39, 33, 11, 0, 0, 0, 0, 24, 0)
s = 77: (0, 36, 0, 40, 19, 9, 0, 0, 0, 0, 35, 0)
s = 78: (0, 32, 0, 17, 27, 9, 0, 0, 0, 0, 26, 0)
s = 79: (0, 25, 0, 21, 32, 9, 0, 0, 0, 0, 28, 0)
s = 80: (0, 44, 0, 25, 30, 6, 0, 0, 0, 0, 48, 0)
s = 81: (0, 44, 0, 21, 31, 12, 0, 0, 0, 0, 41, 0)
s = 82: (0, 24, 0, 37, 27, 7, 0, 0, 0, 0, 31, 0)
s = 83: (0, 45, 0, 26, 22, 9, 0, 0, 0, 0, 32, 0)
s = 84: (0, 56, 0, 24, 25, 11, 0, 0, 0, 0, 52, 0)
s = 85: (0, 40, 0, 28, 22, 15, 0, 0, 0, 0, 25, 0)
s = 86: (0, 38, 0, 26, 33, 10, 0, 0, 0, 0, 42, 0)
s = 87: (0, 42, 0, 32, 44, 9, 0, 0, 0, 0, 45, 0)
s = 88: (0, 27, 0, 20, 25, 9, 0, 0, 0, 0, 36, 0)
s = 89: (0, 53, 0, 18, 36, 8, 0, 0, 0, 0, 42, 0)
s = 90: (0, 31, 0, 15, 19, 8, 0, 0, 0, 0, 46, 0)
s = 91: (0, 26, 0, 16, 25, 11, 0, 0, 0, 0, 33, 0)
s = 92: (0, 49, 0, 29, 35, 14, 0, 0, 0, 0, 34, 0)
s = 93: (0, 44, 0, 33, 27, 10, 0, 0, 0, 0, 27, 0)
s = 94: (0, 51, 0, 25, 23, 7, 0, 0, 0, 0, 24, 0)
s = 95: (0, 24, 0, 20, 25, 8, 0, 0, 0, 0, 32, 0)
s = 96: (0, 28, 0, 20, 18, 11, 0, 0, 0, 0, 60, 0)
s = 97: (0, 49, 0, 24, 24, 6, 0, 0, 0, 0, 39, 0)
s = 98: (0, 31, 0, 27, 21, 10, 0, 0, 0, 0, 37, 0)
s = 99: (0, 45, 0, 21, 18, 11, 0, 0, 0, 0, 39, 0)
s = 100: (0, 40, 0, 27, 17, 9, 0, 0, 0, 0, 31, 0)
s = 101: (0, 34, 0, 30, 41, 8, 0, 0, 0, 0, 53, 0)
s = 102: (0, 47, 0, 36, 22, 6, 0, 0, 0, 0, 36, 0)
s = 103: (0, 44, 0, 14, 27, 7, 0, 0, 0, 0, 55, 0)
s = 104: (0, 48, 0, 22, 38, 9, 0, 0, 0, 0, 33, 0)
s = 105: (0, 40, 0, 15, 21, 7, 0, 0, 0, 0, 35, 0)
s = 106: (0, 45, 0, 21, 20, 8, 0, 0, 0, 0, 28, 0)
s = 107: (0, 46, 0, 30, 30, 10, 0, 0, 0, 0, 52, 0)
s = 108: (0, 32, 0, 25, 37, 11, 0, 0, 0, 0, 26, 0)
s = 109: (0, 55, 0, 23, 36, 9, 0, 0, 0, 0, 50, 0)
s = 110: (0, 30, 0, 19, 18, 7, 0, 0, 0, 0, 48, 0)
s = 111: (0, 54, 0, 24, 35, 9, 0, 0, 0, 0, 49, 0)
s = 112: (0, 53, 0, 33, 38, 10, 0, 0, 0, 0, 56, 0)
s = 113: (0, 32, 0, 32, 28, 8, 0, 0, 0, 0, 27, 0)
s = 114: (0, 36, 0, 30, 41, 9, 0, 0, 0, 0, 37, 0)
s = 115: (0, 30, 0, 26, 31, 8, 0, 0, 0, 0, 32, 0)
s = 116: (0, 70, 0, 41, 27, 9, 0, 0, 0, 0, 48, 0)
s = 117: (0, 41, 0, 30, 41, 9, 0, 0, 0, 0, 32, 0)
s = 118: (0, 33, 0, 21, 44, 13, 0, 0, 0, 0, 37, 0)
s = 119: (0, 40, 0, 26, 20, 13, 0, 0, 0, 0, 51, 0)
s = 120: (0, 33, 0, 29, 30, 7, 0, 0, 0, 0, 40, 0)
s = 121: (0, 54, 0, 25, 42, 8, 0, 0, 0, 0, 25, 0)
s = 122: (0, 46, 0, 18, 33, 6, 0, 0, 0, 0, 37, 0)
s = 123: (0, 62, 0, 22, 34, 9, 0, 0, 0, 0, 27, 0)
s = 124: (0, 51, 0, 24, 21, 8, 0, 0, 0, 0, 41, 0)
s = 125: (0, 50, 0, 30, 22, 10, 0, 0, 0, 0, 48, 0)
s = 126: (0, 28, 0, 19, 39, 6, 0, 0, 0, 0, 33, 0)
s = 127: (0, 60, 0, 24, 33, 11, 0, 0, 0, 0, 38, 0)
s = 128: (0, 36, 0, 19, 23, 7, 0, 0, 0, 0, 30, 0)
s = 129: (0, 71, 0, 31, 48, 9, 0, 0, 0, 0, 55, 0)
s = 130: (0, 33, 0, 31, 19, 9, 0, 0, 0, 0, 45, 0)
s = 131: (0, 63, 0, 18, 20, 12, 0, 0, 0, 0, 35, 0)
s = 132: (0, 44, 0, 38, 17, 6, 0, 0, 0, 0, 40, 0)
s = 133: (0, 53, 0, 19, 24, 8, 0, 0, 0, 0, 40, 0)
s = 134: (0, 36, 0, 23, 20, 8, 0, 0, 0, 0, 52, 0)
s = 135: (0, 44, 0, 33, 22, 12, 0, 0, 0, 0, 49, 0)
s = 136: (0, 29, 0, 18, 25, 9, 0, 0, 0, 0, 28, 0)
s = 137: (0, 39, 0, 37, 29, 6, 0, 0, 0, 0, 74, 0)
s = 138: (0, 41, 0, 20, 30, 11, 0, 0, 0, 0, 28, 0)
s = 139: (0, 42, 0, 34, 17, 6, 0, 0, 0, 0, 52, 0)
s = 140: (0, 34, 0, 21, 30, 5, 0, 0, 0, 0, 30, 0)
s = 141: (0, 54, 0, 27, 28, 12, 0, 0, 0, 0, 41, 0)
s = 142: (0, 36, 0, 23, 21, 10, 0, 0, 0, 0, 65, 0)
s = 143: (0, 34, 0, 20, 33, 12, 0, 0, 0, 0, 52, 0)
s = 144: (0, 48, 0, 30, 33, 10, 0, 0, 0, 0, 33, 0)
s = 145: (0, 35, 0, 24, 31, 11, 0, 0, 0, 0, 55, 0)
s = 146: (0, 40, 0, 25, 26, 7, 0, 0, 0, 0, 40, 0)
s = 147: (0, 32, 0, 22, 29, 8, 0, 0, 0, 0, 44, 0)
s = 148: (0, 60, 0, 24, 23, 8, 0, 0, 0, 0, 41, 0)
s = 149: (0, 38, 0, 28, 20, 11, 0, 0, 0, 0, 35, 0)
s = 150: (0, 28, 0, 26, 47, 8, 0, 0, 0, 0, 31, 0)
s = 151: (0, 44, 0, 26, 39, 8, 0, 0, 0, 0, 54, 0)
s = 152: (0, 45, 0, 19, 26, 5, 0, 0, 0, 0, 51, 0)
s = 153: (0, 39, 0, 22, 26, 7, 0, 0, 0, 0, 39, 0)
s = 154: (0, 42, 0, 30, 23, 7, 0, 0, 0, 0, 53, 0)
s = 155: (0, 57, 0, 16, 23, 6, 0, 0, 0, 0, 29, 0)
s = 156: (0, 26, 0, 32, 38, 5, 0, 0, 0, 0, 23, 0)
s = 157: (0, 52, 0, 18, 33, 7, 0, 0, 0, 0, 59, 0)
s = 158: (0, 32, 0, 38, 28, 6, 0, 0, 0, 0, 62, 0)
s = 159: (0, 61, 0, 17, 27, 6, 0, 0, 0, 0, 42, 0)
s = 160: (0, 47, 0, 20, 32, 9, 0, 0, 0, 0, 47, 0)
s = 161: (0, 26, 0, 29, 32, 5, 0, 0, 0, 0, 59, 0)
s = 162: (0, 32, 0, 36, 25, 12, 0, 0, 0, 0, 38, 0)
s = 163: (0, 53, 0, 20, 19, 9, 0, 0, 0, 0, 43, 0)
s = 164: (0, 30, 0, 22, 26, 10, 0, 0, 0, 0, 62, 0)
s = 165: (0, 31, 0, 16, 31, 6, 0, 0, 0, 0, 47, 0)
s = 166: (0, 33, 0, 18, 40, 8, 0, 0, 0, 0, 46, 0)
s = 167: (0, 29, 0, 25, 17, 9, 0, 0, 0, 0, 30, 0)
s = 168: (0, 32, 0, 23, 21, 13, 0, 0, 0, 0, 38, 0)
s = 169: (0, 53, 0, 21, 21, 11, 0, 0, 0, 0, 39, 0)
s = 170: (0, 28, 0, 28, 40, 12, 0, 0, 0, 0, 45, 0)
s = 171: (0, 65, 0, 22, 30, 13, 0, 0, 0, 0, 26, 0)
s = 172: (0, 39, 0, 21, 31, 6, 0, 0, 0, 0, 25, 0)
s = 173: (0, 45, 0, 31, 30, 11, 0, 0, 0, 0, 28, 0)
s = 174: (0, 56, 0, 21, 22, 7, 0, 0, 0, 0, 50, 0)
s = 175: (0, 37, 0, 30, 30, 10, 0, 0, 0, 0, 47, 0)
s = 176: (0, 39, 0, 20, 21, 9, 0, 0, 0, 0, 71, 0)
s = 177: (0, 31, 0, 25, 17, 9, 0, 0, 0, 0, 23, 0)
s = 178: (0, 33, 0, 25, 31, 8, 0, 0, 0, 0, 49, 0)
s = 179: (0, 51, 0, 24, 41, 9, 0, 0, 0, 0, 46, 0)
s = 180: (0, 38, 0, 17, 46, 9, 0, 0, 0, 0, 43, 0)
s = 181: (0, 30, 0, 15, 32, 6, 0, 0, 0, 0, 62, 0)
s = 182: (0, 27, 0, 14, 28, 6, 0, 0, 0, 0, 44, 0)
s = 183: (0, 24, 0, 37, 45, 8, 0, 0, 0, 0, 55, 0)
s = 184: (0, 40, 0, 19, 32, 9, 0, 0, 0, 0, 32, 0)
s = 185: (0, 45, 0, 15, 23, 6, 0, 0, 0, 0, 48, 0)
s = 186: (0, 44, 0, 34, 22, 9, 0, 0, 0, 0, 73, 0)
s = 187: (0, 46, 0, 39, 24, 8, 0, 0, 0, 0, 34, 0)
s = 188: (0, 61, 0, 24, 17, 11, 0, 0, 0, 0, 58, 0)
s = 189: (0, 31, 0, 25, 19, 12, 0, 0, 0, 0, 31, 0)
s = 190: (0, 30, 0, 18, 23, 11, 0, 0, 0, 0, 48, 0)
s = 191: (0, 41, 0, 28, 33, 7, 0, 0, 0, 0, 41, 0)
s = 192: (0, 56, 0, 28, 23, 14, 0, 0, 0, 0, 38, 0)
s = 193: (0, 34, 0, 19, 25, 6, 0, 0, 0, 0, 52, 0)
s = 194: (0, 45, 0, 17, 35, 12, 0, 0, 0, 0, 30, 0)
s = 195: (0, 61, 0, 20, 29, 6, 0, 0, 0, 0, 54, 0)
s = 196: (0, 40, 0, 18, 34, 10, 0, 0, 0, 0, 29, 0)
s = 197: (0, 37, 0, 20, 27, 7, 0, 0, 0, 0, 36, 0)
s = 198: (0, 29, 0, 42, 25, 12, 0, 0, 0, 0, 47, 0)
s = 199: (0, 65, 0, 22, 25, 6, 0, 0, 0, 0, 46, 0)
s = 200: (0, 46, 0, 19, 22, 10, 0, 0, 0, 0, 43, 0)
------------------------------------------------------------------------
RESOURCE k = 3
s = 1: (0, 0, 10, 0, 0, 0, 9, 23, 28, 6, 0, 0)
s = 2: (0, 0, 9, 0, 0, 0, 14, 27, 28, 6, 0, 0)
s = 3: (0, 0, 12, 0, 0, 0, 9, 17, 31, 6, 0, 0)
s = 4: (0, 0, 18, 0, 0, 0, 9, 24, 27, 5, 0, 0)
s = 5: (0, 0, 8, 0, 0, 0, 11, 20, 26, 5, 0, 0)
s = 6: (0, 0, 9, 0, 0, 0, 6, 19, 23, 4, 0, 0)
s = 7: (0, 0, 12, 0, 0, 0, 7, 19, 33, 8, 0, 0)
s = 8: (0, 0, 11, 0, 0, 0, 7, 19, 33, 7, 0, 0)
s = 9: (0, 0, 7, 0, 0, 0, 9, 26, 34, 5, 0, 0)
s = 10: (0, 0, 10, 0, 0, 0, 8, 22, 33, 8, 0, 0)
s = 11: (0, 0, 6, 0, 0, 0, 6, 21, 39, 5, 0, 0)
s = 12: (0, 0, 9, 0, 0, 0, 7, 25, 38, 7, 0, 0)
s = 13: (0, 0, 7, 0, 0, 0, 10, 23, 26, 6, 0, 0)
s = 14: (0, 0, 13, 0, 0, 0, 12, 21, 22, 6, 0, 0)
s = 15: (0, 0, 10, 0, 0, 0, 7, 19, 25, 7, 0, 0)
s = 16: (0, 0, 11, 0, 0, 0, 6, 21, 48, 6, 0, 0)
s = 17: (0, 0, 17, 0, 0, 0, 9, 36, 30, 6, 0, 0)
s = 18: (0, 0, 10, 0, 0, 0, 9, 23, 47, 5, 0, 0)
s = 19: (0, 0, 10, 0, 0, 0, 7, 15, 29, 6, 0, 0)
s = 20: (0, 0, 8, 0, 0, 0, 9, 17, 22, 5, 0, 0)
s = 21: (0, 0, 14, 0, 0, 0, 13, 34, 35, 6, 0, 0)
s = 22: (0, 0, 8, 0, 0, 0, 7, 32, 62, 5, 0, 0)
s = 23: (0, 0, 9, 0, 0, 0, 12, 33, 31, 6, 0, 0)
s = 24: (0, 0, 8, 0, 0, 0, 8, 17, 44, 4, 0, 0)
s = 25: (0, 0, 9, 0, 0, 0, 8, 16, 38, 5, 0, 0)
s = 26: (0, 0, 12, 0, 0, 0, 6, 38, 24, 5, 0, 0)
s = 27: (0, 0, 12, 0, 0, 0, 11, 20, 33, 8, 0, 0)
s = 28: (0, 0, 12, 0, 0, 0, 8, 27, 31, 5, 0, 0)
s = 29: (0, 0, 9, 0, 0, 0, 10, 23, 29, 5, 0, 0)
s = 30: (0, 0, 11, 0, 0, 0, 13, 28, 21, 4, 0, 0)
s = 31: (0, 0, 12, 0, 0, 0, 14, 32, 32, 5, 0, 0)
s = 32: (0, 0, 7, 0, 0, 0, 11, 19, 36, 4, 0, 0)
s = 33: (0, 0, 8, 0, 0, 0, 6, 17, 23, 6, 0, 0)
s = 34: (0, 0, 7, 0, 0, 0, 9, 20, 19, 9, 0, 0)
s = 35: (0, 0, 8, 0, 0, 0, 6, 19, 31, 5, 0, 0)
s = 36: (0, 0, 8, 0, 0, 0, 7, 20, 36, 4, 0, 0)
s = 37: (0, 0, 9, 0, 0, 0, 8, 27, 51, 8, 0, 0)
s = 38: (0, 0, 8, 0, 0, 0, 10, 30, 33, 7, 0, 0)
s = 39: (0, 0, 9, 0, 0, 0, 10, 22, 44, 5, 0, 0)
s = 40: (0, 0, 7, 0, 0, 0, 11, 19, 20, 7, 0, 0)
s = 41: (0, 0, 13, 0, 0, 0, 7, 33, 34, 6, 0, 0)
s = 42: (0, 0, 8, 0, 0, 0, 10, 23, 31, 5, 0, 0)
s = 43: (0, 0, 10, 0, 0, 0, 7, 15, 23, 6, 0, 0)
s = 44: (0, 0, 12, 0, 0, 0, 12, 24, 35, 5, 0, 0)
s = 45: (0, 0, 8, 0, 0, 0, 12, 18, 42, 6, 0, 0)
s = 46: (0, 0, 11, 0, 0, 0, 14, 22, 32, 10, 0, 0)
s = 47: (0, 0, 7, 0, 0, 0, 7, 35, 32, 7, 0, 0)
s = 48: (0, 0, 13, 0, 0, 0, 10, 15, 54, 6, 0, 0)
s = 49: (0, 0, 7, 0, 0, 0, 9, 23, 23, 8, 0, 0)
s = 50: (0, 0, 7, 0, 0, 0, 11, 19, 36, 5, 0, 0)
s = 51: (0, 0, 11, 0, 0, 0, 9, 32, 30, 10, 0, 0)
s = 52: (0, 0, 6, 0, 0, 0, 7, 25, 31, 6, 0, 0)
s = 53: (0, 0, 7, 0, 0, 0, 9, 24, 35, 6, 0, 0)
s = 54: (0, 0, 9, 0, 0, 0, 12, 15, 37, 4, 0, 0)
s = 55: (0, 0, 16, 0, 0, 0, 8, 20, 27, 4, 0, 0)
s = 56: (0, 0, 8, 0, 0, 0, 12, 18, 40, 6, 0, 0)
s = 57: (0, 0, 12, 0, 0, 0, 8, 23, 48, 5, 0, 0)
s = 58: (0, 0, 7, 0, 0, 0, 7, 20, 33, 6, 0, 0)
s = 59: (0, 0, 9, 0, 0, 0, 7, 23, 38, 7, 0, 0)
s = 60: (0, 0, 9, 0, 0, 0, 12, 34, 27, 7, 0, 0)
s = 61: (0, 0, 8, 0, 0, 0, 10, 25, 41, 6, 0, 0)
s = 62: (0, 0, 10, 0, 0, 0, 8, 21, 22, 8, 0, 0)
s = 63: (0, 0, 9, 0, 0, 0, 8, 32, 29, 6, 0, 0)
s = 64: (0, 0, 12, 0, 0, 0, 16, 20, 39, 6, 0, 0)
s = 65: (0, 0, 10, 0, 0, 0, 10, 16, 31, 7, 0, 0)
s = 66: (0, 0, 14, 0, 0, 0, 8, 33, 24, 8, 0, 0)
s = 67: (0, 0, 8, 0, 0, 0, 8, 39, 55, 6, 0, 0)
s = 68: (0, 0, 12, 0, 0, 0, 9, 22, 30, 10, 0, 0)
s = 69: (0, 0, 13, 0, 0, 0, 7, 29, 27, 4, 0, 0)
s = 70: (0, 0, 7, 0, 0, 0, 8, 30, 25, 6, 0, 0)
s = 71: (0, 0, 13, 0, 0, 0, 6, 14, 30, 8, 0, 0)
s = 72: (0, 0, 9, 0, 0, 0, 7, 25, 31, 9, 0, 0)
s = 73: (0, 0, 15, 0, 0, 0, 9, 21, 33, 9, 0, 0)
s = 74: (0, 0, 8, 0, 0, 0, 11, 22, 37, 6, 0, 0)
s = 75: (0, 0, 15, 0, 0, 0, 8, 27, 25, 6, 0, 0)
s = 76: (0, 0, 10, 0, 0, 0, 12, 21, 31, 6, 0, 0)
s = 77: (0, 0, 8, 0, 0, 0, 11, 31, 44, 9, 0, 0)
s = 78: (0, 0, 6, 0, 0, 0, 6, 22, 26, 6, 0, 0)
s = 79: (0, 0, 10, 0, 0, 0, 15, 29, 28, 5, 0, 0)
s = 80: (0, 0, 14, 0, 0, 0, 10, 25, 40, 10, 0, 0)
s = 81: (0, 0, 8, 0, 0, 0, 10, 30, 39, 5, 0, 0)
s = 82: (0, 0, 8, 0, 0, 0, 13, 16, 26, 7, 0, 0)
s = 83: (0, 0, 7, 0, 0, 0, 10, 20, 26, 5, 0, 0)
s = 84: (0, 0, 6, 0, 0, 0, 15, 37, 40, 7, 0, 0)
s = 85: (0, 0, 13, 0, 0, 0, 7, 28, 31, 4, 0, 0)
s = 86: (0, 0, 11, 0, 0, 0, 6, 35, 28, 5, 0, 0)
s = 87: (0, 0, 9, 0, 0, 0, 9, 15, 35, 6, 0, 0)
s = 88: (0, 0, 9, 0, 0, 0, 11, 28, 36, 4, 0, 0)
s = 89: (0, 0, 7, 0, 0, 0, 8, 28, 42, 6, 0, 0)
s = 90: (0, 0, 10, 0, 0, 0, 14, 33, 38, 6, 0, 0)
s = 91: (0, 0, 7, 0, 0, 0, 6, 23, 21, 6, 0, 0)
s = 92: (0, 0, 12, 0, 0, 0, 8, 15, 44, 8, 0, 0)
s = 93: (0, 0, 9, 0, 0, 0, 11, 27, 45, 8, 0, 0)
s = 94: (0, 0, 14, 0, 0, 0, 9, 26, 35, 4, 0, 0)
s = 95: (0, 0, 8, 0, 0, 0, 9, 33, 27, 9, 0, 0)
s = 96: (0, 0, 10, 0, 0, 0, 7, 20, 32, 7, 0, 0)
s = 97: (0, 0, 11, 0, 0, 0, 9, 28, 24, 7, 0, 0)
s = 98: (0, 0, 15, 0, 0, 0, 7, 27, 25, 6, 0, 0)
s = 99: (0, 0, 11, 0, 0, 0, 6, 28, 31, 9, 0, 0)
s = 100: (0, 0, 8, 0, 0, 0, 11, 14, 27, 5, 0, 0)
s = 101: (0, 0, 11, 0, 0, 0, 8, 16, 18, 8, 0, 0)
s = 102: (0, 0, 13, 0, 0, 0, 12, 25, 33, 9, 0, 0)
s = 103: (0, 0, 14, 0, 0, 0, 7, 22, 23, 9, 0, 0)
s = 104: (0, 0, 12, 0, 0, 0, 8, 31, 28, 8, 0, 0)
s = 105: (0, 0, 6, 0, 0, 0, 8, 30, 32, 7, 0, 0)
s = 106: (0, 0, 9, 0, 0, 0, 9, 22, 24, 5, 0, 0)
s = 107: (0, 0, 9, 0, 0, 0, 10, 22, 31, 6, 0, 0)
s = 108: (0, 0, 11, 0, 0, 0, 13, 21, 48, 7, 0, 0)
s = 109: (0, 0, 12, 0, 0, 0, 9, 31, 21, 6, 0, 0)
s = 110: (0, 0, 8, 0, 0, 0, 15, 28, 28, 6, 0, 0)
s = 111: (0, 0, 13, 0, 0, 0, 10, 21, 31, 4, 0, 0)
s = 112: (0, 0, 16, 0, 0, 0, 7, 33, 38, 4, 0, 0)
s = 113: (0, 0, 7, 0, 0, 0, 7, 18, 26, 6, 0, 0)
s = 114: (0, 0, 14, 0, 0, 0, 7, 29, 24, 7, 0, 0)
s = 115: (0, 0, 15, 0, 0, 0, 10, 17, 21, 6, 0, 0)
s = 116: (0, 0, 6, 0, 0, 0, 7, 20, 21, 7, 0, 0)
s = 117: (0, 0, 17, 0, 0, 0, 9, 36, 24, 6, 0, 0)
s = 118: (0, 0, 10, 0, 0, 0, 10, 34, 27, 6, 0, 0)
s = 119: (0, 0, 9, 0, 0, 0, 13, 23, 36, 8, 0, 0)
s = 120: (0, 0, 14, 0, 0, 0, 13, 24, 23, 8, 0, 0)
s = 121: (0, 0, 15, 0, 0, 0, 7, 20, 19, 7, 0, 0)
s = 122: (0, 0, 10, 0, 0, 0, 8, 33, 25, 5, 0, 0)
s = 123: (0, 0, 7, 0, 0, 0, 11, 23, 37, 6, 0, 0)
s = 124: (0, 0, 14, 0, 0, 0, 10, 20, 40, 4, 0, 0)
s = 125: (0, 0, 13, 0, 0, 0, 8, 20, 21, 4, 0, 0)
s = 126: (0, 0, 9, 0, 0, 0, 8, 21, 47, 4, 0, 0)
s = 127: (0, 0, 10, 0, 0, 0, 11, 39, 41, 6, 0, 0)
s = 128: (0, 0, 8, 0, 0, 0, 8, 19, 32, 5, 0, 0)
s = 129: (0, 0, 7, 0, 0, 0, 10, 25, 34, 8, 0, 0)
s = 130: (0, 0, 10, 0, 0, 0, 9, 27, 49, 6, 0, 0)
s = 131: (0, 0, 8, 0, 0, 0, 9, 33, 46, 9, 0, 0)
s = 132: (0, 0, 8, 0, 0, 0, 9, 29, 21, 5, 0, 0)
s = 133: (0, 0, 14, 0, 0, 0, 15, 20, 38, 7, 0, 0)
s = 134: (0, 0, 10, 0, 0, 0, 9, 20, 25, 9, 0, 0)
s = 135: (0, 0, 8, 0, 0, 0, 9, 40, 38, 7, 0, 0)
s = 136: (0, 0, 6, 0, 0, 0, 7, 21, 51, 6, 0, 0)
s = 137: (0, 0, 13, 0, 0, 0, 5, 25, 30, 5, 0, 0)
s = 138: (0, 0, 18, 0, 0, 0, 14, 28, 36, 8, 0, 0)
s = 139: (0, 0, 13, 0, 0, 0, 12, 24, 28, 7, 0, 0)
s = 140: (0, 0, 10, 0, 0, 0, 8, 17, 52, 4, 0, 0)
s = 141: (0, 0, 14, 0, 0, 0, 8, 26, 34, 6, 0, 0)
s = 142: (0, 0, 11, 0, 0, 0, 11, 21, 38, 8, 0, 0)
s = 143: (0, 0, 13, 0, 0, 0, 7, 26, 35, 8, 0, 0)
s = 144: (0, 0, 11, 0, 0, 0, 8, 35, 30, 6, 0, 0)
s = 145: (0, 0, 7, 0, 0, 0, 10, 18, 30, 7, 0, 0)
s = 146: (0, 0, 10, 0, 0, 0, 8, 25, 28, 7, 0, 0)
s = 147: (0, 0, 10, 0, 0, 0, 10, 31, 21, 6, 0, 0)
s = 148: (0, 0, 8, 0, 0, 0, 7, 37, 46, 5, 0, 0)
s = 149: (0, 0, 12, 0, 0, 0, 7, 25, 23, 8, 0, 0)
s = 150: (0, 0, 12, 0, 0, 0, 7, 15, 23, 5, 0, 0)
s = 151: (0, 0, 11, 0, 0, 0, 12, 33, 29, 5, 0, 0)
s = 152: (0, 0, 17, 0, 0, 0, 9, 22, 42, 9, 0, 0)
s = 153: (0, 0, 15, 0, 0, 0, 9, 17, 41, 6, 0, 0)
s = 154: (0, 0, 10, 0, 0, 0, 7, 27, 25, 6, 0, 0)
s = 155: (0, 0, 9, 0, 0, 0, 13, 19, 23, 6, 0, 0)
s = 156: (0, 0, 7, 0, 0, 0, 9, 22, 24, 6, 0, 0)
s = 157: (0, 0, 18, 0, 0, 0, 10, 38, 26, 5, 0, 0)
s = 158: (0, 0, 12, 0, 0, 0, 7, 16, 55, 5, 0, 0)
s = 159: (0, 0, 10, 0, 0, 0, 11, 26, 24, 8, 0, 0)
s = 160: (0, 0, 16, 0, 0, 0, 13, 22, 24, 8, 0, 0)
s = 161: (0, 0, 8, 0, 0, 0, 7, 19, 24, 5, 0, 0)
s = 162: (0, 0, 14, 0, 0, 0, 13, 17, 34, 10, 0, 0)
s = 163: (0, 0, 10, 0, 0, 0, 10, 15, 38, 6, 0, 0)
s = 164: (0, 0, 9, 0, 0, 0, 8, 19, 26, 9, 0, 0)
s = 165: (0, 0, 12, 0, 0, 0, 9, 25, 45, 7, 0, 0)
s = 166: (0, 0, 12, 0, 0, 0, 8, 24, 28, 9, 0, 0)
s = 167: (0, 0, 7, 0, 0, 0, 5, 15, 27, 9, 0, 0)
s = 168: (0, 0, 13, 0, 0, 0, 11, 30, 40, 7, 0, 0)
s = 169: (0, 0, 9, 0, 0, 0, 9, 14, 31, 6, 0, 0)
s = 170: (0, 0, 11, 0, 0, 0, 9, 38, 33, 6, 0, 0)
s = 171: (0, 0, 13, 0, 0, 0, 11, 32, 19, 5, 0, 0)
s = 172: (0, 0, 9, 0, 0, 0, 7, 35, 44, 6, 0, 0)
s = 173: (0, 0, 8, 0, 0, 0, 6, 25, 22, 6, 0, 0)
s = 174: (0, 0, 9, 0, 0, 0, 6, 25, 31, 4, 0, 0)
s = 175: (0, 0, 9, 0, 0, 0, 11, 21, 39, 7, 0, 0)
s = 176: (0, 0, 16, 0, 0, 0, 8, 20, 39, 8, 0, 0)
s = 177: (0, 0, 10, 0, 0, 0, 12, 15, 32, 7, 0, 0)
s = 178: (0, 0, 12, 0, 0, 0, 13, 17, 31, 5, 0, 0)
s = 179: (0, 0, 10, 0, 0, 0, 12, 27, 31, 5, 0, 0)
s = 180: (0, 0, 6, 0, 0, 0, 7, 28, 42, 8, 0, 0)
s = 181: (0, 0, 12, 0, 0, 0, 11, 16, 32, 8, 0, 0)
s = 182: (0, 0, 10, 0, 0, 0, 9, 35, 43, 5, 0, 0)
s = 183: (0, 0, 13, 0, 0, 0, 14, 18, 30, 5, 0, 0)
s = 184: (0, 0, 10, 0, 0, 0, 9, 25, 26, 7, 0, 0)
s = 185: (0, 0, 9, 0, 0, 0, 7, 36, 24, 9, 0, 0)
s = 186: (0, 0, 9, 0, 0, 0, 7, 32, 38, 4, 0, 0)
s = 187: (0, 0, 14, 0, 0, 0, 9, 33, 23, 4, 0, 0)
s = 188: (0, 0, 12, 0, 0, 0, 10, 17, 52, 6, 0, 0)
s = 189: (0, 0, 12, 0, 0, 0, 9, 33, 32, 10, 0, 0)
s = 190: (0, 0, 11, 0, 0, 0, 12, 19, 20, 4, 0, 0)
s = 191: (0, 0, 9, 0, 0, 0, 6, 20, 32, 5, 0, 0)
s = 192: (0, 0, 10, 0, 0, 0, 10, 17, 49, 8, 0, 0)
s = 193: (0, 0, 13, 0, 0, 0, 9, 27, 30, 7, 0, 0)
s = 194: (0, 0, 14, 0, 0, 0, 11, 22, 26, 8, 0, 0)
s = 195: (0, 0, 18, 0, 0, 0, 7, 36, 40, 4, 0, 0)
s = 196: (0, 0, 9, 0, 0, 0, 11, 22, 19, 5, 0, 0)
s = 197: (0, 0, 9, 0, 0, 0, 6, 38, 17, 8, 0, 0)
s = 198: (0, 0, 12, 0, 0, 0, 8, 20, 19, 7, 0, 0)
s = 199: (0, 0, 11, 0, 0, 0, 13, 15, 24, 6, 0, 0)
s = 200: (0, 0, 15, 0, 0, 0, 8, 25, 47, 8, 0, 0)
************************************************************************
ES/LS-VALUES:
jobnr.   ES(i)    LS(i)
------------------------------------------------------------------------
  0        0        0
  1        0       55
  2        0       66
  3        0       57
  4        5       63
  5       10       66
  6        5       72
  7       18       75
  8       18       74
  9       23       80
 10       12       70
 11       25       82
************************************************************************
BIG-M-VALUES:
M1 = 53, M2 = 199
************************************************************************
